0000000000000000
0000000000000000
0000111111000000
0000111111100000
0000111111110000
0000000111110000
0000000011110000
0000000011110000
0000000111110000
0000011111111000
0000011111111000
0000111111111000
0000111101111000
0001111101111000
0001111001111000
0000000000000000
